(set-logic QF_S)
(declare-fun var_0xINPUT_151986 () String)
(assert (and (not (= var_0xINPUT_151986 "CQALcCP5TB")) (= (len var_0xINPUT_151986) 0) (not (= var_0xINPUT_151986 "Example:")) (not (= var_0xINPUT_151986 "CQALcCP5TB"))))
(check-sat var_0xINPUT_151986)